p cnf 129 433
-3 1 0
-3 -2 0
-1 2 3 0
5 3 0
5 4 0
-3 -4 -5 0
5 -6 -7 0
-5 6 -7 0
5 6 7 0
-5 -6 7 0
-11 9 0
-11 10 0
-9 -10 11 0
8 -11 -12 0
-8 11 -12 0
8 11 12 0
-8 -11 12 0
13 -7 0
13 12 0
7 -12 -13 0
15 14 0
15 4 0
-14 -4 -15 0
2 -16 -17 0
-2 16 -17 0
2 16 17 0
-2 -16 17 0
-19 6 0
-19 -18 0
-6 18 19 0
20 2 0
20 -19 0
-2 19 -20 0
21 17 0
21 -20 0
-17 20 -21 0
11 16 -22 0
-11 -16 -22 0
11 -16 22 0
-11 16 22 0
24 23 0
24 -17 0
-23 17 -24 0
-25 22 0
-25 24 0
-22 -24 25 0
26 -21 0
26 -25 0
21 25 -26 0
-27 11 0
-27 -19 0
-11 19 27 0
-28 17 -29 0
28 -17 -29 0
-28 -17 29 0
28 17 29 0
-30 -19 0
-30 -17 0
19 17 30 0
31 30 0
31 -6 0
-30 6 -31 0
-32 -18 0
-32 -2 0
18 2 32 0
-33 -9 0
-33 -32 0
9 32 33 0
-34 -31 0
-34 33 0
31 -33 34 0
-35 29 0
-35 34 0
-29 -34 35 0
27 -35 -36 0
-27 35 -36 0
27 35 36 0
-27 -35 36 0
38 37 0
38 8 0
-37 -8 -38 0
39 12 0
39 -38 0
-12 38 -39 0
40 -36 0
40 -39 0
36 39 -40 0
-41 -26 0
-41 -40 0
26 40 41 0
15 -41 -42 0
-15 41 -42 0
15 41 42 0
-15 -41 42 0
-43 9 0
-43 3 0
-9 -3 43 0
43 -44 -45 0
-43 44 -45 0
43 44 45 0
-43 -44 45 0
-46 -10 0
-46 -22 0
10 22 46 0
47 -46 0
47 23 0
46 -23 -47 0
-48 5 0
-48 47 0
-5 -47 48 0
45 -48 -49 0
-45 48 -49 0
45 48 49 0
-45 -48 49 0
-51 50 0
-51 -9 0
-50 9 51 0
-4 51 -52 0
4 -51 -52 0
-4 -51 52 0
4 51 52 0
53 -16 0
53 52 0
16 -52 -53 0
53 -8 -54 0
-53 8 -54 0
53 8 54 0
-53 -8 54 0
-55 -49 0
-55 -54 0
49 54 55 0
-56 -14 0
-56 32 0
14 -32 56 0
56 37 -57 0
-56 -37 -57 0
56 -37 57 0
-56 37 57 0
-58 2 0
-58 57 0
-2 -57 58 0
29 -58 -59 0
-29 58 -59 0
29 58 59 0
-29 -58 59 0
-60 8 0
-60 -17 0
-8 17 60 0
59 60 -61 0
-59 -60 -61 0
59 -60 61 0
-59 60 61 0
-6 28 -62 0
6 -28 -62 0
-6 -28 62 0
6 28 62 0
6 -51 -63 0
-6 51 -63 0
6 51 63 0
-6 -51 63 0
64 -62 0
64 -63 0
62 63 -64 0
65 28 0
65 64 0
-28 -64 -65 0
66 -23 0
66 37 0
23 -37 -66 0
67 -65 0
67 66 0
65 -66 -67 0
68 -61 0
68 67 0
61 -67 -68 0
-69 -55 0
-69 68 0
55 -68 69 0
70 -3 0
70 -11 0
3 11 -70 0
71 70 0
71 5 0
-70 -5 -71 0
72 71 0
72 33 0
-71 -33 -72 0
-73 -64 0
-73 72 0
64 -72 73 0
-74 -73 0
-74 64 0
73 -64 74 0
75 -69 0
75 74 0
69 -74 -75 0
-76 -45 0
-76 5 0
45 -5 76 0
-77 -76 0
-77 64 0
76 -64 77 0
-78 50 0
-78 -77 0
-50 77 78 0
78 -57 -79 0
-78 57 -79 0
78 57 79 0
-78 -57 79 0
80 37 0
80 38 0
-37 -38 -80 0
-81 4 0
-81 -80 0
-4 80 81 0
31 -81 -82 0
-31 81 -82 0
31 81 82 0
-31 -81 82 0
-79 -82 -83 0
79 82 -83 0
-79 82 83 0
79 -82 83 0
5 37 -84 0
-5 -37 -84 0
5 -37 84 0
-5 37 84 0
-85 71 0
-85 84 0
-71 -84 85 0
-70 10 -86 0
70 -10 -86 0
-70 -10 86 0
70 10 86 0
-87 86 0
-87 -4 0
-86 4 87 0
-85 -87 -88 0
85 87 -88 0
-85 87 88 0
85 -87 88 0
89 83 0
89 88 0
-83 -88 -89 0
-90 -75 0
-90 -89 0
75 89 90 0
91 -42 0
91 90 0
42 -90 -91 0
13 -91 -92 0
-13 91 -92 0
13 91 92 0
-13 -91 92 0
93 -1 0
93 20 0
1 -20 -93 0
-30 18 -94 0
30 -18 -94 0
-30 -18 94 0
30 18 94 0
-95 77 0
-95 94 0
-77 -94 95 0
-96 -93 0
-96 -95 0
93 95 96 0
-97 50 0
-97 -71 0
-50 71 97 0
98 96 0
98 97 0
-96 -97 -98 0
86 52 -99 0
-86 -52 -99 0
86 -52 99 0
-86 52 99 0
100 -11 0
100 9 0
11 -9 -100 0
-101 100 0
-101 -32 0
-100 32 101 0
101 -72 -102 0
-101 72 -102 0
101 72 102 0
-101 -72 102 0
-103 -99 0
-103 102 0
99 -102 103 0
98 -103 -104 0
-98 103 -104 0
98 103 104 0
-98 -103 104 0
86 50 -105 0
-86 -50 -105 0
86 -50 105 0
-86 50 105 0
106 -3 0
106 19 0
3 -19 -106 0
12 -106 -107 0
-12 106 -107 0
12 106 107 0
-12 -106 107 0
108 -7 0
108 -17 0
7 17 -108 0
-109 107 0
-109 108 0
-107 -108 109 0
-2 -37 -111 0
2 37 -111 0
-2 37 111 0
2 -37 111 0
-112 -110 0
-112 111 0
110 -111 112 0
113 109 0
113 -112 0
-109 112 -113 0
114 50 0
114 -20 0
-50 20 -114 0
-51 -22 -115 0
51 22 -115 0
-51 22 115 0
51 -22 115 0
115 51 -116 0
-115 -51 -116 0
115 -51 116 0
-115 51 116 0
114 116 -117 0
-114 -116 -117 0
114 -116 117 0
-114 116 117 0
-47 20 -118 0
47 -20 -118 0
-47 -20 118 0
47 20 118 0
119 -117 0
119 118 0
117 -118 -119 0
-120 -23 0
-120 -17 0
23 17 120 0
121 62 0
121 -5 0
-62 5 -121 0
-120 -121 -122 0
120 121 -122 0
-120 121 122 0
120 -121 122 0
119 -122 -123 0
-119 122 -123 0
119 122 123 0
-119 -122 123 0
-124 33 0
-124 6 0
-33 -6 124 0
-125 -123 0
-125 124 0
123 -124 125 0
126 -113 0
126 -125 0
113 125 -126 0
127 105 0
127 126 0
-105 -126 -127 0
-128 104 0
-128 -127 0
-104 127 128 0
92 -128 -129 0
-92 128 -129 0
92 128 129 0
-92 -128 129 0
116 118 -99 63 111 -108 0
-80 -41 -108 -91 27 0
-63 -21 -67 -72 -96 119 0
48 113 96 -14 0
101 -52 7 94 0
-103 43 0
107 -100 117 0
-44 -61 59 89 0
64 18 85 89 26 -81 0
-48 43 0
-84 108 0
-63 -15 0
1 107 0
41 46 61 21 -7 59 0
54 -63 -3 -125 -42 0
-54 -51 124 -48 0
125 -30 -97 -39 40 8 0
-32 -12 0
-64 105 -100 103 -89 77 0
-106 35 116 24 17 0
-120 63 60 -101 -97 0
-36 52 0
57 36 -55 -115 -20 -56 0
-25 -8 57 -21 0
30 -110 -23 0
47 1 -96 0
91 -39 0
36 11 58 -110 0
-32 -122 30 0
-65 -5 0
-99 -58 84 -79 0
-26 80 -15 -30 0
93 126 104 30 0
-93 -1 -34 -78 -119 0
129 -9 63 -13 -4 15 0
112 -28 0
-100 79 -8 0
22 88 -10 0
61 -123 -112 0
74 71 77 0
-53 -90 -13 0
-5 -58 -38 0
-33 118 -3 -35 47 114 0
64 30 0
-25 -59 124 31 0
110 40 63 -62 0
-125 -26 0
-36 -126 -49 -43 0
108 -105 -115 109 0
57 -52 -53 2 0
3 45 126 -122 -108 25 0
-101 -25 -26 0
74 47 -61 115 7 0
51 63 0
40 -21 49 34 0
-54 -40 65 -15 0
129 0
